NAME: tsp_113
COMMENT: Random TSP instance
TYPE: TSP
DIMENSION: 50
EDGE_WEIGHT_TYPE: EUC_2D
NODE_COORD_SECTION
1 856 197
2 684 65
3 480 835
4 196 274
5 190 848
6 272 11
7 695 330
8 461 337
9 68 388
10 647 453
11 436 162
12 703 26
13 509 433
14 179 175
15 268 548
16 958 684
17 393 322
18 398 604
19 137 410
20 674 391
21 827 893
22 493 723
23 497 238
24 96 938
25 186 337
26 164 712
27 564 483
28 33 827
29 434 620
30 320 131
31 817 285
32 450 261
33 45 664
34 863 121
35 247 246
36 288 795
37 971 938
38 181 301
39 302 31
40 237 636
41 409 930
42 467 930
43 59 754
44 428 691
45 482 680
46 66 513
47 307 898
48 432 622
49 162 141
50 136 782
